2096.12
0 4 67 2 91 17 5 7 89 0
0 54 55 39 15 14 13 69 0
0 21 22 23 24 29 50 20 19 0
0 36 64 30 70 31 28 26 0
0 34 35 32 38 61 37 73 74 25 0
0 40 41 43 42 44 45 47 18 0
0 48 49 16 97 60 52 0
0 62 90 71 9 79 56 58 0
0 66 65 3 68 53 0
0 72 75 63 51 33 78 77 76 0
0 57 100 96 92 84 83 82 88 81 80 0
0 86 85 98 87 0
0 10 8 93 99 95 94 6 0
0 59 46 11 1 12 27 0
